(set-info :source |printed by MathSAT|)
(declare-fun |!{array.1}| () (Array Int Int))
(declare-fun |!{array.1}.next| () (Array Int Int))
(declare-fun |!{SIZE}| () Int)
(declare-fun |!{SIZE}.next| () Int)
(declare-fun |!{i}| () Int)
(declare-fun |!{i}.next| () Int)
(declare-fun |!{largest}| () Int)
(declare-fun |!{largest}.next| () Int)
(declare-fun |!{x}| () Int)
(declare-fun |!{x}.next| () Int)
(declare-fun |!pc[0]| () Bool)
(declare-fun |!pc[0].next| () Bool)
(declare-fun |!pc[1]| () Bool)
(declare-fun |!pc[1].next| () Bool)
(declare-fun |!pc[2]| () Bool)
(declare-fun |!pc[2].next| () Bool)
(declare-fun |%{largest}#1| () Int)
(declare-fun |%{x}#1| () Int)
(declare-fun |%{array.1}#1| () (Array Int Int))
(declare-fun nd<0> () Int)
(declare-fun |%{largest}#2| () Int)
(declare-fun nd_char<0> () Int)
(define-fun .def_38 () Bool (! |!pc[2]| :next |!pc[2].next|))
(define-fun .def_43 () Bool (not .def_38))
(define-fun .def_36 () Bool (! |!pc[1]| :next |!pc[1].next|))
(define-fun .def_41 () Bool (not .def_36))
(define-fun .def_34 () Bool (! |!pc[0]| :next |!pc[0].next|))
(define-fun .def_40 () Bool (not .def_34))
(define-fun .def_42 () Bool (and .def_40 .def_41))
(define-fun .def_44 () Bool (! (and .def_42 .def_43) :init true))
(define-fun .def_157 () Bool (and .def_34 .def_41))
(define-fun .def_182 () Bool (and .def_43 .def_157))
(define-fun .def_65 () Bool (not |!pc[1].next|))
(define-fun .def_66 () Bool (and |!pc[0].next| .def_65))
(define-fun .def_159 () Bool (and |!pc[2].next| .def_66))
(define-fun .def_185 () Bool (and .def_159 .def_182))
(define-fun .def_8 () (Array Int Int) (! |!{array.1}| :next |!{array.1}.next|))
(define-fun .def_169 () Int (select .def_8 0))
(define-fun .def_178 () Bool (= |!{largest}.next| .def_169))
(define-fun .def_176 () Bool (= |!{i}.next| 1))
(define-fun .def_10 () Int (! |!{SIZE}| :next |!{SIZE}.next|))
(define-fun .def_82 () Bool (= .def_10 |!{SIZE}.next|))
(define-fun .def_80 () Bool (= .def_8 |!{array.1}.next|))
(define-fun .def_91 () Bool (and .def_80 .def_82))
(define-fun .def_177 () Bool (and .def_91 .def_176))
(define-fun .def_179 () Bool (and .def_177 .def_178))
(define-fun .def_16 () Int (! |!{x}| :next |!{x}.next|))
(define-fun .def_88 () Bool (= .def_16 |!{x}.next|))
(define-fun .def_180 () Bool (and .def_88 .def_179))
(define-fun .def_12 () Int (! |!{i}| :next |!{i}.next|))
(define-fun .def_129 () Bool (<= .def_10 .def_12))
(define-fun .def_181 () Bool (and .def_129 .def_180))
(define-fun .def_186 () Bool (and .def_181 .def_185))
(define-fun .def_67 () Bool (not |!pc[2].next|))
(define-fun .def_68 () Bool (and .def_66 .def_67))
(define-fun .def_183 () Bool (and .def_68 .def_182))
(define-fun .def_167 () (Array Int Int) (store .def_8 .def_12 nd_char<0>))
(define-fun .def_170 () Bool (= |!{array.1}.next| .def_167))
(define-fun .def_171 () Bool (and .def_82 .def_170))
(define-fun .def_145 () Int (* (- 1) |!{i}.next|))
(define-fun .def_146 () Int (+ .def_12 .def_145))
(define-fun .def_147 () Bool (= .def_146 (- 1)))
(define-fun .def_172 () Bool (and .def_147 .def_171))
(define-fun .def_14 () Int (! |!{largest}| :next |!{largest}.next|))
(define-fun .def_86 () Bool (= .def_14 |!{largest}.next|))
(define-fun .def_173 () Bool (and .def_86 .def_172))
(define-fun .def_174 () Bool (and .def_88 .def_173))
(define-fun .def_130 () Bool (not .def_129))
(define-fun .def_175 () Bool (and .def_130 .def_174))
(define-fun .def_184 () Bool (and .def_175 .def_183))
(define-fun .def_187 () Bool (or .def_184 .def_186))
(define-fun .def_158 () Bool (and .def_38 .def_157))
(define-fun .def_112 () Bool (not |!pc[0].next|))
(define-fun .def_113 () Bool (and |!pc[1].next| .def_112))
(define-fun .def_114 () Bool (and .def_67 .def_113))
(define-fun .def_162 () Bool (and .def_114 .def_158))
(define-fun .def_154 () Bool (= |!{x}.next| 0))
(define-fun .def_84 () Bool (= .def_12 |!{i}.next|))
(define-fun .def_92 () Bool (and .def_84 .def_91))
(define-fun .def_93 () Bool (and .def_86 .def_92))
(define-fun .def_155 () Bool (and .def_93 .def_154))
(define-fun .def_156 () Bool (and .def_129 .def_155))
(define-fun .def_163 () Bool (and .def_156 .def_162))
(define-fun .def_160 () Bool (and .def_158 .def_159))
(define-fun .def_149 () Bool (= |!{largest}.next| |%{largest}#2|))
(define-fun .def_148 () Bool (and .def_91 .def_147))
(define-fun .def_150 () Bool (and .def_148 .def_149))
(define-fun .def_151 () Bool (and .def_88 .def_150))
(define-fun .def_131 () Int (select .def_8 .def_12))
(define-fun .def_139 () Bool (= .def_131 |%{largest}#2|))
(define-fun .def_132 () Bool (<= .def_131 .def_14))
(define-fun .def_133 () Bool (not .def_132))
(define-fun .def_141 () Bool (and .def_133 .def_139))
(define-fun .def_138 () Bool (= .def_14 |%{largest}#2|))
(define-fun .def_140 () Bool (and .def_132 .def_138))
(define-fun .def_142 () Bool (or .def_140 .def_141))
(define-fun .def_152 () Bool (and .def_142 .def_151))
(define-fun .def_153 () Bool (and .def_130 .def_152))
(define-fun .def_161 () Bool (and .def_153 .def_160))
(define-fun .def_164 () Bool (or .def_161 .def_163))
(define-fun .def_124 () Bool (and .def_34 .def_36))
(define-fun .def_125 () Bool (and .def_43 .def_124))
(define-fun .def_126 () Bool (and .def_114 .def_125))
(define-fun .def_95 () Int (* (- 1) |!{x}.next|))
(define-fun .def_96 () Int (+ .def_16 .def_95))
(define-fun .def_97 () Bool (= .def_96 (- 1)))
(define-fun .def_98 () Bool (and .def_93 .def_97))
(define-fun .def_127 () Bool (and .def_98 .def_126))
(define-fun .def_118 () Bool (and .def_65 .def_112))
(define-fun .def_119 () Bool (and |!pc[2].next| .def_118))
(define-fun .def_106 () Bool (and .def_36 .def_40))
(define-fun .def_107 () Bool (and .def_43 .def_106))
(define-fun .def_120 () Bool (and .def_107 .def_119))
(define-fun .def_71 () Bool (<= .def_10 .def_16))
(define-fun .def_101 () Bool (and .def_71 .def_80))
(define-fun .def_102 () Bool (and .def_82 .def_101))
(define-fun .def_103 () Bool (and .def_84 .def_102))
(define-fun .def_104 () Bool (and .def_86 .def_103))
(define-fun .def_105 () Bool (and .def_88 .def_104))
(define-fun .def_121 () Bool (and .def_105 .def_120))
(define-fun .def_115 () Bool (and .def_107 .def_114))
(define-fun .def_73 () Int (select .def_8 .def_16))
(define-fun .def_74 () Bool (<= .def_73 .def_14))
(define-fun .def_99 () Bool (and .def_74 .def_98))
(define-fun .def_72 () Bool (not .def_71))
(define-fun .def_100 () Bool (and .def_72 .def_99))
(define-fun .def_116 () Bool (and .def_100 .def_115))
(define-fun .def_108 () Bool (and |!pc[0].next| |!pc[1].next|))
(define-fun .def_109 () Bool (and .def_67 .def_108))
(define-fun .def_110 () Bool (and .def_107 .def_109))
(define-fun .def_75 () Bool (not .def_74))
(define-fun .def_81 () Bool (and .def_75 .def_80))
(define-fun .def_83 () Bool (and .def_81 .def_82))
(define-fun .def_85 () Bool (and .def_83 .def_84))
(define-fun .def_87 () Bool (and .def_85 .def_86))
(define-fun .def_89 () Bool (and .def_87 .def_88))
(define-fun .def_90 () Bool (and .def_72 .def_89))
(define-fun .def_111 () Bool (and .def_90 .def_110))
(define-fun .def_117 () Bool (or .def_111 .def_116))
(define-fun .def_122 () Bool (or .def_117 .def_121))
(define-fun .def_69 () Bool (and .def_44 .def_68))
(define-fun .def_62 () Bool (= |!{x}.next| |%{x}#1|))
(define-fun .def_60 () Bool (= |!{largest}.next| |%{largest}#1|))
(define-fun .def_58 () Bool (= |!{i}.next| 0))
(define-fun .def_56 () Bool (= |!{SIZE}.next| nd<0>))
(define-fun .def_55 () Bool (= |!{array.1}.next| |%{array.1}#1|))
(define-fun .def_57 () Bool (and .def_55 .def_56))
(define-fun .def_59 () Bool (and .def_57 .def_58))
(define-fun .def_61 () Bool (and .def_59 .def_60))
(define-fun .def_63 () Bool (and .def_61 .def_62))
(define-fun .def_53 () Bool (<= nd<0> 0))
(define-fun .def_54 () Bool (not .def_53))
(define-fun .def_64 () Bool (and .def_54 .def_63))
(define-fun .def_70 () Bool (and .def_64 .def_69))
(define-fun .def_123 () Bool (or .def_70 .def_122))
(define-fun .def_128 () Bool (or .def_123 .def_127))
(define-fun .def_165 () Bool (or .def_128 .def_164))
(define-fun .def_188 () Bool (! (or .def_165 .def_187) :trans true))
(define-fun .def_189 () Bool (! (not .def_125) :invar-property 0))
(assert true)
